p edge 100 50
e 1 2
e 3 4
e 5 6
e 7 8
e 9 10
e 11 12
e 13 14
e 15 16
e 17 18
e 19 20
e 21 22
e 23 24
e 25 26
e 27 28
e 29 30
e 31 32
e 33 34
e 35 36
e 37 38
e 39 40
e 41 42
e 43 44
e 45 46
e 47 48
e 49 50
e 51 52
e 53 54
e 55 56
e 57 58
e 59 60
e 61 62
e 63 64
e 65 66
e 67 68
e 69 70
e 71 72
e 73 74
e 75 76
e 77 78
e 79 80
e 81 82
e 83 84
e 85 86
e 87 88
e 89 90
e 91 92
e 93 94
e 95 96
e 97 98
e 99 100
